(declare-fun temp934_1 () (_ BitVec 64))
(declare-fun var80340 () (_ BitVec 64))
(declare-fun k!0 () Bool)
(declare-fun ARGNAME_dims_self_NAMEEND_LEN () (_ BitVec 64))
(declare-fun ARGNAME_dims_other_NAMEEND_LEN () (_ BitVec 64))
(declare-fun temp934_3 () (_ BitVec 64))
(declare-fun temp934_2 () (_ BitVec 64))
(declare-fun var203926 () (_ BitVec 64))
(declare-fun temp934_4 () (_ BitVec 64))
(declare-fun temp934_5 () (_ BitVec 64))
(declare-fun var272546 () (_ BitVec 64))
(declare-fun var338093 () (_ BitVec 64))
(declare-fun var136036 () (_ BitVec 64))
(declare-fun temp934_6 () (_ BitVec 64))
(declare-fun var80413 () (_ BitVec 64))
(declare-fun var80394 () (_ BitVec 64))
(declare-fun var80393 () (_ BitVec 64))
(declare-fun temp934_7 () (_ BitVec 64))
(declare-fun ARGNAME_input_NAMEEND_DIM () (_ BitVec 64))
(declare-fun var1187199 () (_ BitVec 64))
(declare-fun temp934_8 () (_ BitVec 64))
(declare-fun temp934_10 () (_ BitVec 64))
(declare-fun temp934_9 () (_ BitVec 64))
(declare-fun temp934_12 () (_ BitVec 64))
(declare-fun temp934_11 () (_ BitVec 64))
(declare-fun temp934_13 () (_ BitVec 64))
(declare-fun var1779874 () (_ BitVec 64))
(declare-fun var1845421 () (_ BitVec 64))
(declare-fun temp934_14 () (_ BitVec 64))
(declare-fun var2630727 () (_ BitVec 64))
(declare-fun temp934_15 () (_ BitVec 64))
(declare-fun ARGNAME_other_NAMEEND_DIM () (_ BitVec 64))
(declare-fun var3022207 () (_ BitVec 64))
(declare-fun temp934_16 () (_ BitVec 64))
(declare-fun temp934_18 () (_ BitVec 64))
(declare-fun temp934_17 () (_ BitVec 64))
(declare-fun temp934_20 () (_ BitVec 64))
(declare-fun temp934_19 () (_ BitVec 64))
(declare-fun temp934_21 () (_ BitVec 64))
(declare-fun var3614882 () (_ BitVec 64))
(declare-fun var3680429 () (_ BitVec 64))
(declare-fun temp934_22 () (_ BitVec 64))
(declare-fun var4465735 () (_ BitVec 64))
(declare-fun var80583 () (_ BitVec 64))
(declare-fun var80585 () (_ BitVec 64))
(declare-fun temp934_24 () (_ BitVec 64))
(declare-fun temp934_23 () (_ BitVec 64))
(declare-fun var5772276 () (_ BitVec 64))
(declare-fun temp934_25 () (_ BitVec 64))
(declare-fun temp934_26 () (_ BitVec 64))
(declare-fun var5841941 () (_ BitVec 64))
(declare-fun var5907488 () (_ BitVec 64))
(declare-fun var5709342 () (_ BitVec 64))
(declare-fun temp934_27 () (_ BitVec 64))
(declare-fun var80615 () (_ BitVec 64))
(declare-fun temp934_29 () (_ BitVec 64))
(declare-fun temp934_28 () (_ BitVec 64))
(declare-fun var6558708 () (_ BitVec 64))
(declare-fun temp934_30 () (_ BitVec 64))
(declare-fun temp934_31 () (_ BitVec 64))
(declare-fun var6628373 () (_ BitVec 64))
(declare-fun var6693920 () (_ BitVec 64))
(declare-fun var6495774 () (_ BitVec 64))
(declare-fun temp934_32 () (_ BitVec 64))
(declare-fun var80775 () (_ BitVec 64))
(declare-fun temp934_33 () (_ BitVec 64))
(declare-fun var7676381 () (_ BitVec 64))
(declare-fun var7676393 () (_ BitVec 64))
(declare-fun temp934_35 () (_ BitVec 64))
(declare-fun temp934_34 () (_ BitVec 64))
(declare-fun temp934_37 () (_ BitVec 64))
(declare-fun temp934_36 () (_ BitVec 64))
(assert (= var80340
   (ite (= ARGNAME_dims_self_NAMEEND_LEN ARGNAME_dims_other_NAMEEND_LEN)
        #x0000000000000001
        #x0000000000000000)))
(assert (= temp934_1 #x0000000000000001))
(assert (= var80340 temp934_1))
(assert (= temp934_3 #x0000000000000000))
(assert (= temp934_2 temp934_3))
(assert (= var203926
   (ite (bvslt temp934_2 ARGNAME_dims_self_NAMEEND_LEN)
        #x0000000000000001
        #x0000000000000000)))
(assert (= temp934_4
   (ite (= var203926 #x0000000000000001)
        ARGNAME_dims_self_NAMEEND_LEN
        temp934_2)))
(assert (= temp934_5 #x0000000000000000))
(assert (= var272546 temp934_5))
(assert (= var338093 var272546))
(assert (= var136036 var338093))
(assert (= temp934_6 #x0000000000000001))
(assert (= var80413 temp934_6))
(assert (= var80394 var80413))
(assert (= var80393 var80394))
(assert (= temp934_7 #x0000000000000040))
(assert (= var1187199
   (ite (bvsgt ARGNAME_input_NAMEEND_DIM temp934_7)
        #x0000000000000001
        #x0000000000000000)))
(assert (= temp934_8 #x0000000000000000))
(assert (= var1187199 temp934_8))
(assert (= temp934_10 #x0000000000000000))
(assert (= temp934_9 temp934_10))
(assert (= temp934_12 #x0000000000000000))
(assert (= temp934_11 temp934_12))
(assert (= temp934_13 #x0000000000000000))
(assert (= var1779874 temp934_13))
(assert (= var1845421 var1779874))
(assert (= temp934_14 #x0000000000000001))
(assert (= var2630727 temp934_14))
(assert (= temp934_15 #x0000000000000040))
(assert (= var3022207
   (ite (bvsgt ARGNAME_other_NAMEEND_DIM temp934_15)
        #x0000000000000001
        #x0000000000000000)))
(assert (= temp934_16 #x0000000000000000))
(assert (= var3022207 temp934_16))
(assert (= temp934_18 #x0000000000000000))
(assert (= temp934_17 temp934_18))
(assert (= temp934_20 #x0000000000000000))
(assert (= temp934_19 temp934_20))
(assert (= temp934_21 #x0000000000000000))
(assert (= var3614882 temp934_21))
(assert (= var3680429 var3614882))
(assert (= temp934_22 #x0000000000000001))
(assert (= var4465735 temp934_22))
(assert (= var80583 (bvadd ARGNAME_other_NAMEEND_DIM ARGNAME_input_NAMEEND_DIM)))
(assert (= var80585 (bvsub var80583 ARGNAME_dims_self_NAMEEND_LEN)))
(assert (= temp934_24 #x0000000000000000))
(assert (= temp934_23 temp934_24))
(assert (= var5772276
   (ite (bvslt temp934_23 ARGNAME_input_NAMEEND_DIM)
        #x0000000000000001
        #x0000000000000000)))
(assert (= temp934_25
   (ite (= var5772276 #x0000000000000001) ARGNAME_input_NAMEEND_DIM temp934_23)))
(assert (= temp934_26 #x0000000000000000))
(assert (= var5841941 temp934_26))
(assert (= var5907488 var5841941))
(assert (= var5709342 var5907488))
(assert (= temp934_27 #x0000000000000001))
(assert (= var80615 temp934_27))
(assert (= temp934_29 #x0000000000000000))
(assert (= temp934_28 temp934_29))
(assert (= var6558708
   (ite (bvslt temp934_28 ARGNAME_other_NAMEEND_DIM)
        #x0000000000000001
        #x0000000000000000)))
(assert (= temp934_30
   (ite (= var6558708 #x0000000000000001) ARGNAME_other_NAMEEND_DIM temp934_28)))
(assert (= temp934_31 #x0000000000000000))
(assert (= var6628373 temp934_31))
(assert (= var6693920 var6628373))
(assert (= var6495774 var6693920))
(assert (= temp934_32 #x0000000000000001))
(assert (= var80775 temp934_32))
(assert (= temp934_33 #x0000000000000001))
(assert (= var7676381 temp934_33))
(assert (= var7676393 var7676381))
(assert (= temp934_35 #x0000000000000002))
(assert (= temp934_34 temp934_35))
(assert (= temp934_37 #x0000000000000002))
(assert (= temp934_36 temp934_37))
(model-add temp934_1 () (_ BitVec 64) #x0000000000000001)
(model-add var80340 () (_ BitVec 64) #x0000000000000001)
(model-del k!0)
(model-add ARGNAME_dims_self_NAMEEND_LEN
           ()
           (_ BitVec 64)
           (ite k!0
                ARGNAME_dims_other_NAMEEND_LEN
                (bvnot ARGNAME_dims_other_NAMEEND_LEN)))





